p cnf 30 45
19 16 -10 
-29 -24 -13 
30 7 -22 
-21 -27 -6 
16 19 -23 
12 9 -2 
7 11 -22 
-29 11 24 
-28 -3 -4 
-17 28 7 
-15 6 11 
-10 -18 -1 
10 8 -2 
6 28 -20 
17 2 -6 
14 -1 -2 
24 9 2 
-1 -23 30 
-3 -19 -18 
18 28 -19 
-6 -1 -2 
-4 -22 19 
-10 -9 27 
-6 -25 22 
16 28 30 
-17 -3 6 
-20 1 5 
3 21 -15 
-8 17 -3 
-30 -26 12 
4 -21 23 
7 -4 -28 
2 8 30 
25 14 -26 
-12 15 14 
-30 -13 19 
-6 -25 -6 
-30 20 -11 
-13 -25 11 
11 -17 -20 
9 -21 -28 
-12 15 8 
-23 30 5 
22 7 15 
9 -10 1 

